Ti Hf                                   
   1.00000000000000     
    -1.6543958918620882    1.6543958918620882    1.6543958918620882
     1.6543958918620882   -1.6543958918620882    1.6543958918620882
     4.9631876755862647    4.9631876755862647   -1.6543958918620882
   Ti   Hf
     2     1
Direct
  0.0052050761437172  0.0052050761437172  0.0104101522874345
  0.6614615905229471  0.6614615905229471  0.3229231810458941
  0.3333333333333357  0.3333333333333357  0.6666666666666643
 
  0.00000000E+00  0.00000000E+00  0.00000000E+00
  0.00000000E+00  0.00000000E+00  0.00000000E+00
  0.00000000E+00  0.00000000E+00  0.00000000E+00
