INCAR created by Atomic Simulation Environment
 ENCUT = 300.000000
 KSPACING = 0.500000
 SIGMA = 0.160000
 EDIFF = 1.00e-06
 SYMPREC = 1.00e-04
 ALGO = Normal
 GGA = PE
 PREC = high
 ICHARG = 2
 ISMEAR = 1
 ISTART = 0
 KPAR = 11
 NELM = 200
 NELMIN = 5
 NCORE = 1
 LCHARG = .FALSE.
 LWAVE = .FALSE.
 LREAL = False
