Ti Nb 
 1.0000000000000000
    -1.6543958918620882    1.6543958918620882    1.6543958918620882
     1.6543958918620882   -1.6543958918620882    1.6543958918620882
     4.9631876755862647    4.9631876755862647   -1.6543958918620882
 Ti  Nb 
   2   1
Cartesian
  0.0000000000000000  0.0000000000000000  0.0000000000000000
  1.6543958918620882  1.6543958918620880  1.6543958918620880
  3.3087917837241765  3.3087917837241760 -0.0000000000000002
