Ti 
 1.0000000000000000
    -1.6409482486550511    1.6409482486550511    1.6409482486550511
     1.6409482486550511   -1.6409482486550511    1.6409482486550511
     1.6409482486550511    1.6409482486550511   -1.6409482486550511
 Ti 
   1
Cartesian
  0.0000000000000000  0.0000000000000000  0.0000000000000000
